N = 5;
Capacity = 14;
Demand = [3, 5, 1, 10, 6];
Distance = [|
  0, 33, 46, 51, 52, 58
| 33, 0, 15, 25, 30, 40
| 46, 15, 0, 12, 19, 47
| 51, 25, 12, 0, 8, 59
| 52, 30, 19, 8, 0, 66
| 58, 40, 47, 59, 66, 0
|];
